; benchmark generated from python API
(set-info :status unknown)
(declare-fun S_1 () Real)
(declare-fun S_2 () Real)
(declare-fun S_4 () Real)
(declare-fun A_4 () Real)
(declare-fun Q_4 () Real)
(declare-fun L_1 () Real)
(declare-fun S_0 () Real)
(declare-fun L_0 () Real)
(declare-fun A_0 () Real)
(declare-fun A_1 () Real)
(declare-fun S_3 () Real)
(declare-fun A_3 () Real)
(declare-fun A_2 () Real)
(assert
 (let (($x1509 (>= Q_4 0.0)))
 (let ((?x823 (* (- 1.0) A_1)))
 (let ((?x20190 (* (/ 1.0 2.0) S_3)))
 (let ((?x1463 (* (- (/ 1.0 2.0)) L_0)))
 (let ((?x1462 (* (/ 1.0 2.0) A_0)))
 (let (($x20017 (<= (+ ?x1462 ?x1463 ?x20190 L_1 ?x823) 0.0)))
 (let (($x20994 (not $x20017)))
 (let (($x4302 (<= (+ (* (- 1.0) Q_4) A_4 A_2 (* (- 2.0) A_3)) 0.0)))
 (let (($x4254 (not $x4302)))
 (let (($x2362 (<= (+ A_2 (* (- 1.0) S_3) (* (- 1.0) L_1)) 0.0)))
 (let ((?x932 (* (- 1.0) A_0)))
 (let ((?x820 (* (- 1.0) L_1)))
 (let ((?x873 (* (- 1.0) A_4)))
 (let (($x1748 (not (<= (+ Q_4 ?x873 A_3 ?x820 A_1 L_0 ?x932) 0.0))))
 (let (($x1580 (<= Q_4 0.0)))
 (let (($x1296 (not $x1580)))
 (let ((?x841 (* (- 1.0) A_3)))
 (let ((?x9574 (* (- (/ 1.0 2.0)) S_4)))
 (let ((?x4257 (* (/ 1.0 2.0) A_1)))
 (let ((?x778 (* (- 1.0) Q_4)))
 (let ((?x9591 (* (- (/ 1.0 2.0)) L_1)))
 (let (($x188480 (not (<= 0.0 (+ ?x9591 ?x778 A_4 ?x4257 ?x9574 ?x841)))))
 (let ((?x832 (* (- 1.0) A_2)))
 (let ((?x811 (* (- 1.0) L_0)))
 (let ((?x1450 (* (- 1.0) S_4)))
 (let ((?x1888 (* 2.0 A_4)))
 (let (($x31993 (<= (+ (* (- (/ 1.0 2.0)) Q_4) (* (/ 1.0 2.0) A_4) (* (/ 1.0 2.0) A_2) ?x1450 ?x820) 0.0)))
 (let (($x4509 (not (<= (+ L_1 A_1 S_4 (* (- 2.0) A_2)) 0.0))))
 (let (($x250423 (or $x1296 $x4254 $x4509 $x31993 (<= (+ ?x778 ?x1888 ?x841 ?x1450 A_0 ?x811 ?x832) 0.0) $x188480)))
 (let (($x179798 (<= 0.0 (+ (* (- (/ 1.0 2.0)) Q_4) (* (/ 1.0 2.0) A_4) (* (/ 1.0 2.0) A_2) ?x841))))
 (let (($x19508 (<= (+ ?x841 A_4 (* (- (/ 1.0 2.0)) A_2) ?x1462 ?x1463 (* (/ 1.0 2.0) L_1)) 0.0)))
 (let (($x173899 (not (<= 0.0 (+ ?x778 A_4 A_2 ?x1450 ?x820 ?x841)))))
 (let ((?x3180 (* (- (/ 1.0 2.0)) A_3)))
 (let ((?x4286 (* (- (/ 1.0 2.0)) A_1)))
 (let ((?x9565 (* (/ 1.0 2.0) L_1)))
 (let ((?x3847 (* (/ 1.0 2.0) A_4)))
 (let ((?x3893 (* (- (/ 1.0 2.0)) Q_4)))
 (let ((?x46804 (+ ?x3893 ?x3847 ?x1462 ?x1463 ?x9565 ?x4286 ?x3180)))
 (let (($x46805 (<= ?x46804 0.0)))
 (let (($x3197 (<= (+ A_3 ?x1450 ?x820) 0.0)))
 (let (($x238186 (or $x1296 $x3197 $x19508 (not (<= (+ (* (/ 1.0 2.0) A_2) ?x1462 ?x1463 ?x9565 ?x823) 0.0)) $x173899)))
 (let (($x179840 (<= 0.0 (+ A_3 ?x1450 (* (- 2.0) L_1) (* 2.0 A_1) L_0 ?x932 ?x832))))
 (let (($x179841 (not $x179840)))
 (let (($x177508 (not (<= (+ ?x778 ?x932 L_0 ?x820 A_1) 5.0))))
 (let ((?x1102 (+ A_2 ?x841)))
 (let (($x21942 (<= ?x1102 (- 5.0))))
 (let ((?x24381 (* (/ 1.0 3.0) S_3)))
 (let ((?x10392 (* (- (/ 2.0 3.0)) L_0)))
 (let ((?x13088 (* (/ 2.0 3.0) A_0)))
 (let ((?x24384 (+ ?x13088 ?x10392 ?x24381 L_1 ?x823)))
 (let (($x169912 (not (<= 0.0 (+ L_1 S_0 ?x932)))))
 (let (($x738 (= ?x820 ?x811)))
 (let (($x7875 (<= (+ (* 2.0 A_2) ?x1450 ?x820 ?x823) 0.0)))
 (let (($x9607 (<= (+ (* (- (/ 3.0 2.0)) L_1) (* (/ 3.0 2.0) A_1) ?x9574 L_0 ?x932) 0.0)))
 (let (($x7873 (<= (+ (* 3.0 A_2) (* (- 2.0) S_4) (* (- 3.0) L_1) L_0 ?x932) 0.0)))
 (let ((?x1459 (* (- 1.0) S_3)))
 (let ((?x13028 (* (- (/ 1.0 3.0)) L_0)))
 (let ((?x44134 (* (/ 2.0 3.0) S_4)))
 (let ((?x70914 (+ ?x44134 (* (- (/ 1.0 3.0)) A_0) ?x13028 (* (- (/ 2.0 3.0)) A_4) ?x1459 (* (/ 2.0 3.0) S_0) (* (/ 2.0 3.0) L_1) (* (/ 2.0 3.0) A_3))))
 (let ((?x4288 (* (/ 1.0 2.0) A_3)))
 (let ((?x1451 (* (- (/ 1.0 2.0)) A_0)))
 (let ((?x69201 (* (/ 1.0 2.0) S_0)))
 (let ((?x4285 (* (- (/ 1.0 2.0)) A_4)))
 (let ((?x9593 (* (/ 1.0 2.0) S_4)))
 (let (($x20579 (<= (+ (* (- (/ 3.0 2.0)) A_0) (* (/ 1.0 2.0) L_0) (* (- (/ 1.0 2.0)) S_3) S_0 A_1) 0.0)))
 (let (($x208885 (or $x738 $x2362 (not $x20579) (<= (+ ?x4257 ?x9593 ?x4285 ?x1459 ?x69201 ?x1451 ?x4288) 0.0) (<= ?x70914 0.0))))
 (let (($x176255 (not (<= 0.0 (+ S_1 L_1 ?x823)))))
 (let (($x20659 (<= (+ ?x932 L_0 S_1 A_2 ?x841) 0.0)))
 (let (($x44306 (not (<= (+ ?x778 A_2 ?x1459 ?x932 L_0 (* (- 2.0) L_1) A_1) 0.0))))
 (let (($x2967 (<= (+ L_1 ?x811) 0.0)))
 (let (($x174259 (<= (+ ?x9591 ?x4257 ?x9574) (- 5.0))))
 (let (($x173765 (<= (+ A_0 ?x811 L_1 ?x823) (- 5.0))))
 (let (($x165869 (<= (+ A_3 ?x1450 (* (- 2.0) L_1) A_1 (* (- 1.0) S_1) A_0 ?x832) (- 5.0))))
 (let (($x528871 (or $x3197 $x21942 $x173765 (not (<= (- 5.0) (+ A_3 ?x1450 ?x820 A_1 ?x832))))))
 (let (($x2989 (<= (+ A_3 ?x1450 ?x820 S_2 (* (- 1.0) S_1) A_0 ?x832) 0.0)))
 (let (($x1405 (<= (+ ?x1451 (* (/ 1.0 2.0) L_0) ?x1450 (* (/ 3.0 2.0) S_2)) 0.0)))
 (let (($x173794 (<= (+ ?x1450 A_0 ?x811) (- 15.0))))
 (let (($x173338 (<= (+ Q_4 A_3 ?x1450 ?x820 A_1 ?x832) (- 5.0))))
 (let (($x526380 (or $x1296 $x2362 $x4254 (not (<= (+ Q_4 ?x873 A_3 L_1 ?x823 S_3) 0.0)) $x46805)))
 (let (($x92106 (<= (+ ?x9593 A_0 ?x811 ?x4285 (* (- 1.0) S_2) ?x9565 ?x4286 ?x4288) 0.0)))
 (let ((?x56852 (* (/ 1.0 3.0) A_3)))
 (let ((?x10433 (* (/ 1.0 3.0) L_1)))
 (let ((?x70126 (* (/ 1.0 3.0) S_0)))
 (let ((?x1495 (* (- 1.0) S_2)))
 (let ((?x28314 (* (- (/ 1.0 3.0)) A_4)))
 (let ((?x13068 (* (/ 1.0 3.0) A_0)))
 (let ((?x44592 (* (/ 1.0 3.0) S_4)))
 (let (($x1790 (<= (+ ?x820 A_1 ?x1495) 0.0)))
 (let (($x208284 (or $x738 $x1790 (<= (+ ?x44592 ?x13068 ?x10392 ?x28314 ?x1495 ?x70126 ?x10433 ?x56852) 0.0) $x92106)))
 (let (($x531432 (or $x1296 $x3197 $x4302 $x46805 (not (<= 0.0 (+ ?x820 ?x778 A_4 A_1 ?x1450 ?x832))))))
 (let ((?x3017 (* (- 2.0) S_4)))
 (let (($x12533 (<= (+ (* (- 4.0) A_0) (* 4.0 L_0) ?x3017 (* 6.0 S_1)) 0.0)))
 (let (($x520788 (or $x3197 $x12533 $x20659 (<= (+ A_3 ?x1450 ?x932 L_0 S_1 ?x820 A_1 ?x832) 0.0))))
 (let ((?x2017 (* 2.0 A_1)))
 (let ((?x1816 (* (- 2.0) L_1)))
 (let (($x532465 (or $x2967 (not (<= (+ Q_4 A_3 ?x1816 ?x2017 ?x1459 L_0 ?x932 ?x832) 0.0)) $x169912)))
 (let (($x192393 (<= 0.0 (+ ?x9593 A_0 ?x811 ?x4285 (* (/ 3.0 2.0) L_1) (* (- (/ 3.0 2.0)) A_1) ?x4288))))
 (let (($x532238 (or $x1790 $x2967 (<= (+ ?x841 A_0 S_3 ?x811 ?x1495 L_1 ?x823 A_2) 0.0) (<= (+ ?x3180 ?x20190 ?x1463 ?x1495 ?x69201 ?x9565 (* (/ 1.0 2.0) A_2)) 0.0))))
 (let (($x43882 (<= (+ ?x832 S_4 ?x873 ?x1495 ?x811 S_0 (* 2.0 L_1) A_3) 0.0)))
 (let (($x17005 (<= (+ Q_4 ?x873 ?x832 S_4 A_0 ?x811 (* 2.0 L_1) ?x823 A_3) 0.0)))
 (let (($x207421 (or $x738 $x1790 (not (<= (+ ?x932 ?x1495 S_0 A_1) 0.0)) (<= (+ ?x9593 ?x4285 ?x1463 ?x1495 ?x69201 ?x9565 (* (/ 1.0 2.0) A_2)) 0.0))))
 (let (($x65002 (<= (+ ?x932 ?x1495 S_0 A_1) 0.0)))
 (let (($x525336 (or $x738 $x65002 (<= (+ S_4 ?x873 A_0 ?x811 ?x1495 L_1 ?x823 A_2) 0.0))))
 (let (($x186135 (<= 0.0 (+ S_4 ?x873 A_0 ?x811 (* 2.0 L_1) (* (- 2.0) A_1) A_2))))
 (let (($x178265 (<= (+ (* (- (/ 1.0 2.0)) A_2) ?x1462 ?x1463 ?x9565) (- 5.0))))
 (let (($x7923 (<= (+ A_2 ?x1450 ?x820) (- 5.0))))
 (let (($x176848 (<= 0.0 (+ ?x778 A_4 ?x1462 ?x1463 (* (- (/ 1.0 2.0)) S_2) ?x841))))
 (let (($x20865 (<= (+ Q_4 ?x873 (* (- 2.0) A_0) L_0 S_2 S_0 L_1 A_2) 0.0)))
 (let ((?x2070 (* 2.0 A_2)))
 (let ((?x2069 (* (- 2.0) A_1)))
 (let ((?x2068 (* 2.0 L_1)))
 (let ((?x2067 (* 3.0 S_2)))
 (let ((?x1829 (* (- 2.0) A_4)))
 (let ((?x1828 (* 2.0 Q_4)))
 (let (($x529322 (or $x1580 (<= (+ ?x1828 ?x1829 ?x932 L_0 ?x2067 ?x2068 ?x2069 ?x2070) 0.0) $x2967 $x20865 $x176848)))
 (let ((?x1893 (* (- 3.0) A_3)))
 (let ((?x2405 (* (- 3.0) L_1)))
 (let ((?x2086 (* (- 3.0) S_1)))
 (let ((?x2085 (* 4.0 A_0)))
 (let ((?x1894 (* 3.0 A_4)))
 (let ((?x1895 (* (- 3.0) Q_4)))
 (let (($x20385 (<= (+ ?x1895 ?x1894 ?x2085 ?x811 ?x1450 ?x2086 ?x2405 ?x1893) 0.0)))
 (let ((?x3018 (* (- 3.0) A_2)))
 (let ((?x1619 (* (- 2.0) L_0)))
 (let ((?x2094 (* 5.0 A_0)))
 (let (($x19802 (<= (+ ?x1895 ?x1894 ?x2094 ?x1619 ?x3017 ?x2086 ?x2405 ?x3018) 0.0)))
 (let ((?x2035 (* (- 4.0) A_1)))
 (let ((?x2388 (* 3.0 L_1)))
 (let ((?x2497 (* (- 3.0) L_0)))
 (let ((?x3014 (* 3.0 A_0)))
 (let (($x5510 (<= (+ ?x778 A_4 ?x3014 ?x2497 ?x2388 ?x2035) 0.0)))
 (let (($x1473 (<= (+ ?x778 A_0 (* (- 1.0) S_1) ?x820) 0.0)))
 (let (($x529971 (or $x1473 $x5510 $x7875 $x19802 $x20385 (not (<= (+ ?x44592 ?x13088 ?x10392 L_1 ?x823) 0.0)) (<= 0.0 ?x46804))))
 (let ((?x1471 (* (- 1.0) S_1)))
 (let ((?x9598 (* (- (/ 3.0 2.0)) L_1)))
 (let (($x29225 (<= (+ ?x9598 ?x778 A_4 ?x4257 ?x9574 ?x1471 A_0 ?x841) 0.0)))
 (let (($x7782 (<= (+ ?x778 A_4 A_2 ?x1450 ?x1816 ?x1471 A_0 ?x841) 0.0)))
 (let (($x3658 (<= (+ ?x2405 (* (- 2.0) Q_4) ?x1888 A_1 (* (- 3.0) S_4)) 0.0)))
 (let (($x3440 (<= (+ ?x778 A_4 ?x1450 ?x1816 A_1 ?x1471 A_0 ?x832) 0.0)))
 (let (($x533284 (or $x1473 $x3197 $x3440 $x3658 $x7782 (<= (+ ?x778 A_4 A_2 ?x3017 ?x1816) 0.0) $x29225 $x46805)))
 (let ((?x3641 (* (- 3.0) A_0)))
 (let ((?x2404 (* 3.0 L_0)))
 (let (($x531551 (or $x1473 (not (<= (+ ?x2405 Q_4 ?x873 (* 4.0 A_1) ?x2404 ?x3641) 0.0)) (not $x7875) $x7782 $x20385 $x31993 $x179798)))
 (let ((?x4282 (* (/ 1.0 2.0) A_2)))
 (let ((?x19352 (+ ?x4282 ?x1462 ?x1463 ?x9565 ?x823)))
 (let (($x177356 (<= 0.0 ?x19352)))
 (let ((?x2063 (* 2.0 A_0)))
 (let ((?x1889 (* (- 2.0) Q_4)))
 (let (($x22706 (<= (+ ?x1889 ?x1888 ?x841 ?x1450 ?x2063 ?x811 ?x1471 ?x820 ?x832) 0.0)))
 (let (($x5497 (<= (+ ?x1895 ?x1894 A_0 ?x811 (* (- 4.0) S_4) ?x2405) 0.0)))
 (let (($x11866 (<= (+ ?x1895 ?x1894 ?x932 L_0 ?x3017 ?x2405 (* 3.0 A_1) ?x1893) 0.0)))
 (let ((?x2821 (* 3.0 A_1)))
 (let ((?x1478 (* 2.0 L_0)))
 (let ((?x2073 (* (- 2.0) A_0)))
 (let (($x10698 (<= (+ ?x1895 ?x2073 ?x1478 ?x1450 ?x2405 ?x2821) 0.0)))
 (let (($x2005 (<= (+ ?x778 A_4 ?x1450 ?x820 A_1 ?x832) 0.0)))
 (let (($x218875 (or $x2005 $x3197 $x5497 $x7873 $x10698 $x11866 (<= (+ ?x778 A_3 ?x1450 ?x932 L_0 ?x1816 ?x2017 ?x832) 0.0))))
 (let ((?x1830 (* 2.0 A_3)))
 (let ((?x3881 (* 2.0 S_0)))
 (let (($x523942 (or $x1580 $x2967 (<= (+ ?x2388 ?x1828 ?x1829 ?x823 S_3 ?x3881 ?x2073 ?x1830) 0.0) (<= ?x24384 0.0))))
 (let (($x3037 (<= (+ A_3 ?x1450 ?x2405 ?x2017 ?x1471 L_0 ?x832) 0.0)))
 (let (($x521668 (or $x3037 $x3197 $x9607 $x21942 $x173794 (<= (+ A_3 ?x1450 ?x2063 ?x811 ?x1471 ?x820 ?x832) (- 10.0)))))
 (let ((?x56853 (* (/ 1.0 3.0) A_2)))
 (let ((?x56815 (* (- (/ 1.0 3.0)) A_3)))
 (let ((?x10461 (* (- (/ 1.0 3.0)) Q_4)))
 (let (($x9833 (<= (+ ?x778 A_4 ?x841 A_0 ?x811 ?x1495) 0.0)))
 (let (($x27928 (<= (+ ?x3893 ?x3847 (* (- (/ 1.0 2.0)) A_2) A_0 ?x1495 ?x811) 0.0)))
 (let (($x20345 (<= (+ ?x778 A_4 ?x2063 ?x811 ?x1495 ?x1471 ?x820 ?x841) 0.0)))
 (let (($x20343 (<= (+ ?x1889 ?x1888 ?x3014 ?x811 ?x1459 (* (- 2.0) S_1) ?x1816 (* (- 2.0) A_3)) 0.0)))
 (let (($x10979 (<= (+ ?x2405 ?x778 A_4 ?x2017 (* (- 2.0) S_3) ?x1471 A_0 ?x832) 0.0)))
 (let (($x9987 (<= (+ ?x778 A_4 ?x2063 ?x811 ?x1459 ?x1471 ?x820 ?x832) 0.0)))
 (let (($x525696 (or $x1473 $x2362 (<= (+ ?x2405 ?x778 A_4 ?x2017 (* (- 3.0) S_3)) 0.0) $x5510 $x9987 $x10979 (<= (+ ?x1816 ?x778 A_4 A_1 ?x1459 ?x1471 A_0 ?x841) 0.0) $x20343)))
 (let (($x5473 (<= (+ ?x778 A_4 A_0 ?x811 (* (- 2.0) S_3) ?x820) 0.0)))
 (let (($x265042 (or $x1473 $x2362 $x5473 $x9987 $x20343 (<= 0.0 (+ ?x1462 ?x20190 ?x1463 L_1 ?x823)))))
 (let (($x38323 (<= (+ ?x44592 ?x13088 ?x10392 L_1 ?x823) 0.0)))
 (let (($x182059 (<= (+ Q_4 A_3 ?x1450 A_0 ?x811 ?x832) (- 10.0))))
 (let (($x539463 (or $x2005 (<= (+ ?x778 A_2 ?x1450 ?x932 L_0 ?x1816 A_1) 0.0) $x3197 $x5497 $x10698 $x11866 (<= (+ ?x778 ?x932 L_0 ?x820 ?x2017 ?x832) 0.0) (<= (+ ?x778 A_4 ?x2070 ?x3017 ?x932 L_0 ?x2405 A_1 ?x841) 0.0) $x31993)))
 (let (($x521411 (or $x1580 $x2967 (<= (+ ?x1828 ?x1829 ?x832 S_4 ?x2388 ?x3881 ?x2073 ?x1830) 0.0) $x17005)))
 (let (($x175583 (<= 0.0 (+ ?x1889 ?x1888 ?x841 ?x1450 ?x820 A_1 ?x832))))
 (let ((?x1458 (* (/ 1.0 2.0) L_0)))
 (let ((?x1484 (* (- (/ 3.0 2.0)) A_0)))
 (let (($x20139 (<= (+ Q_4 ?x873 ?x1484 ?x1458 ?x9593 S_0 L_1 A_2) 0.0)))
 (let (($x9682 (<= (+ ?x1828 ?x1829 A_3 S_4 ?x2068 ?x823 S_0 ?x932 A_2) 0.0)))
 (let ((?x2041 (* 4.0 A_2)))
 (let ((?x2019 (* 4.0 L_1)))
 (let ((?x2038 (* 3.0 S_4)))
 (let ((?x2007 (* (- 4.0) A_4)))
 (let ((?x2059 (* 4.0 Q_4)))
 (let (($x2045 (<= (+ ?x2059 ?x2007 A_0 ?x811 ?x2038 ?x2019 ?x2035 ?x2041) 0.0)))
 (let ((?x19465 (* (/ 1.0 4.0) S_4)))
 (let ((?x19480 (+ Q_4 ?x873 (* (- (/ 5.0 4.0)) A_0) (* (/ 1.0 4.0) L_0) ?x19465 S_0 L_1 A_3)))
 (let (($x527912 (or $x1580 $x2967 (<= (+ ?x1828 ?x1829 A_0 ?x811 S_4 ?x2068 ?x2069 ?x1830) 0.0) (<= ?x19480 0.0))))
 (let (($x12548 (<= (+ ?x1889 ?x932 L_0 ?x1459 ?x1816 ?x2017) 0.0)))
 (let ((?x2015 (* (- 2.0) A_2)))
 (let ((?x2026 (* (- 3.0) S_3)))
 (let (($x1728 (<= (+ ?x778 A_4 ?x841 ?x820 A_1 ?x1459) 0.0)))
 (let (($x252600 (or $x1728 (<= (+ ?x1889 ?x1888 A_0 ?x811 ?x2026 ?x1816 ?x2017 ?x2015) 0.0) $x2362 $x5473 $x12548)))
 (let (($x46753 (<= (+ ?x3893 ?x3847 ?x1462 ?x1463 ?x1495 ?x9591 ?x4257 ?x3180) 0.0)))
 (let (($x5466 (<= (+ ?x778 A_4 ?x3014 ?x2497 (* (- 4.0) S_2) ?x820) 0.0)))
 (let (($x2353 (<= (+ ?x778 ?x1495 ?x820 A_1) 0.0)))
 (let (($x2066 (<= (+ ?x778 A_4 ?x2063 ?x1619 (* (- 3.0) S_2) ?x820 A_1 ?x832) 0.0)))
 (let (($x19498 (<= (+ (* (/ 3.0 4.0) A_0) (* (- (/ 3.0 4.0)) L_0) ?x19465 L_1 ?x823) 0.0)))
 (let ((?x1825 (* 3.0 A_3)))
 (let ((?x3606 (* 3.0 S_0)))
 (let ((?x1824 (* (- 3.0) A_4)))
 (let ((?x1823 (* 3.0 Q_4)))
 (let (($x244460 (or $x1580 $x2967 (<= (+ ?x2019 ?x1823 ?x1824 ?x823 S_4 ?x3606 ?x3641 ?x1825) 0.0) $x19498)))
 (let (($x4099 (<= (+ ?x2388 Q_4 ?x873 ?x2069 (* 2.0 S_2) S_0 ?x932 A_2) 0.0)))
 (let (($x1779 (<= (+ Q_4 ?x873 A_3 L_1 ?x823 S_2) 0.0)))
 (let ((?x3608 (* 3.0 A_2)))
 (let ((?x4144 (* 2.0 S_4)))
 (let (($x250847 (or $x1580 $x2967 (<= (+ (* 5.0 L_1) ?x1823 ?x1824 ?x2069 ?x4144 ?x3606 ?x3641 ?x3608) 0.0) $x9682 $x19498)))
 (let (($x239092 (or $x1580 $x2045 $x2967 $x20139 (<= (+ ?x1823 ?x1824 ?x1830 S_4 ?x2073 L_0 S_0 L_1 A_2) 0.0) $x175583)))
 (let ((?x4252 (* (/ 3.0 2.0) A_3)))
 (let ((?x4328 (* (- (/ 3.0 2.0)) A_1)))
 (let ((?x9540 (* (/ 3.0 2.0) L_1)))
 (let ((?x4215 (* (- (/ 3.0 2.0)) A_4)))
 (let ((?x4279 (* (/ 3.0 2.0) Q_4)))
 (let ((?x13071 (* (/ 1.0 3.0) L_0)))
 (let (($x31764 (<= (+ Q_4 ?x873 (* (- (/ 4.0 3.0)) A_0) ?x13071 ?x24381 S_0 L_1 A_3) 0.0)))
 (let (($x537725 (or $x1580 $x2967 $x31764 (<= (+ ?x4279 ?x4215 ?x1462 ?x1463 S_3 ?x9540 ?x4328 ?x4252) 0.0))))
 (let (($x32329 (<= (+ Q_4 ?x873 ?x3641 L_0 ?x3881 L_1 A_1 A_3) 0.0)))
 (let (($x34402 (<= (+ Q_4 ?x873 ?x1484 ?x1458 (* (/ 1.0 2.0) S_2) S_0 L_1 A_3) 0.0)))
 (let (($x536010 (or $x2066 $x2353 $x5466 (not (<= (+ Q_4 ?x873 A_0 ?x811 L_1 ?x2069 ?x1830) 0.0)))))
 (let ((?x56838 (* (/ 2.0 3.0) A_2)))
 (let ((?x56827 (* (- (/ 2.0 3.0)) A_3)))
 (let ((?x10385 (* (- (/ 2.0 3.0)) Q_4)))
 (let (($x11168 (<= (+ ?x1889 ?x1888 (* (- 2.0) A_3) A_0 ?x1459 ?x811) 0.0)))
 (let (($x123050 (or $x1728 $x2362 (<= (+ ?x3893 ?x3180 ?x9593 ?x9591 ?x4257 ?x1459 ?x4282) 0.0) $x11168 (<= (+ ?x10385 ?x56827 ?x44134 ?x13068 ?x1459 ?x13028 ?x56838) 0.0))))
 (let (($x518358 (or $x1580 $x2967 (not (<= (+ A_3 ?x820 A_1 ?x1495 ?x832) 0.0)) $x20865 $x176848)))
 (let (($x19363 (<= (+ ?x778 A_4 ?x3014 ?x1619 (* (- 2.0) S_2) ?x1471 ?x820 ?x832) 0.0)))
 (let (($x17016 (<= (+ Q_4 ?x873 ?x2015 (* 2.0 S_3) A_0 ?x811 ?x2388 ?x823 A_3) 0.0)))
 (let (($x7712 (<= (+ Q_4 ?x873 ?x832 S_3 ?x2068 S_0 ?x932 A_3) 0.0)))
 (let (($x254546 (or $x3197 $x7873 $x12533 (<= (+ Q_4 A_3 ?x1450 ?x932 L_0 (* 2.0 S_1) ?x832) 0.0))))
 (let (($x213013 (or $x738 $x2362 $x20579 (<= (+ S_4 A_0 ?x811 ?x873 ?x1459 L_1 ?x823 A_3) 0.0))))
 (let (($x217711 (or $x738 (<= (+ S_4 ?x873 L_1 ?x1459 S_0 ?x932 A_2) 0.0) (<= (+ ?x4144 ?x1829 A_0 ?x1459 ?x811 ?x2068 ?x2069 ?x2070) 0.0))))
 (let (($x213197 (or $x3197 (<= (+ (* (- (/ 1.0 2.0)) A_2) ?x1451 ?x1458 S_1 ?x9565) 0.0) (<= (+ A_2 ?x1450 ?x932 L_0 S_1 ?x820) 0.0))))
 (let (($x20337 (<= (+ Q_4 ?x873 ?x3641 ?x1478 (* 2.0 S_1) S_0 L_1 A_2) 0.0)))
 (let (($x11022 (<= (+ Q_4 ?x873 A_3 ?x932 L_0 S_1) 0.0)))
 (let (($x2076 (<= (+ Q_4 ?x873 ?x2073 ?x1478 (* 3.0 S_1) L_1 ?x823 A_2) 0.0)))
 (let (($x172343 (<= (+ L_1 Q_4 ?x873 S_0 ?x932 A_3) (- 5.0))))
 (let (($x519154 (or $x1580 $x2967 $x172343 (<= (+ (* (/ 1.0 2.0) Q_4) ?x4285 ?x1462 ?x1463 ?x9565 ?x4286 ?x4288) (- 5.0)))))
 (let (($x12890 (<= (+ ?x1823 ?x2063 ?x1619 S_3 ?x2388 (* (- 3.0) A_1)) 0.0)))
 (let (($x212043 (or $x738 $x1580 $x1779 (<= (+ ?x2068 Q_4 ?x873 ?x823 S_2 S_0 ?x932 A_3) 0.0))))
 (let (($x170835 (<= (+ L_1 Q_4 ?x873 S_0 ?x932 A_2) (- 10.0))))
 (let (($x712 (<= (+ Q_4 ?x873 A_3) (- 5.0))))
 (let (($x212273 (or (<= (+ Q_4 ?x873 A_0 ?x811 L_1 ?x823 A_2) (- 15.0)) $x712 $x738 $x1580 $x170835)))
 (let (($x19172 (<= (+ A_3 ?x1450 ?x1451 ?x1458 (* (/ 1.0 2.0) S_2) ?x820 A_1 ?x832) 0.0)))
 (let (($x1483 (<= (+ Q_4 ?x873 ?x932 L_0 (* 2.0 S_2) L_1) 0.0)))
 (let (($x1477 (<= (+ Q_4 ?x932 S_0 L_1) 0.0)))
 (let (($x252660 (or $x1477 (<= (+ Q_4 ?x832 S_3 A_0 ?x811 ?x2068 ?x823) 0.0) $x2967)))
 (let (($x174413 (<= 0.0 (+ ?x778 A_4 ?x820 A_1 ?x1459 ?x832))))
 (let ((?x13014 (* (/ 2.0 3.0) S_3)))
 (let ((?x24574 (+ Q_4 ?x873 (* (- (/ 5.0 3.0)) A_0) (* (/ 2.0 3.0) L_0) ?x13014 S_0 L_1 A_2)))
 (let (($x221467 (or $x1580 $x2967 (<= (+ ?x1828 ?x1829 A_3 ?x2073 S_3 L_0 S_0 L_1 A_2) 0.0) (<= ?x24574 0.0) $x174413)))
 (let (($x243238 (or $x2066 $x2353 (<= (+ Q_4 ?x873 A_0 ?x811 L_1 ?x2035 ?x2041) 0.0) $x46753)))
 (let (($x516635 (or $x1580 (<= (+ Q_4 ?x873 ?x3641 ?x2404 (* 4.0 S_1) L_1) 0.0) $x11022 (<= (+ (* (/ 1.0 2.0) Q_4) ?x4285 ?x4282 ?x932 L_0 S_1) 0.0))))
 (let (($x47774 (<= (+ ?x1828 ?x841 S_4 ?x2063 ?x1619 ?x2388 (* (- 3.0) A_1) A_2) 0.0)))
 (let (($x530264 (or $x738 $x1580 (<= (+ Q_4 ?x873 ?x2068 ?x823 S_3 S_0 ?x932 A_2) 0.0) $x174413)))
 (let (($x184039 (or $x738 $x1477 (<= (+ Q_4 ?x841 S_4 A_0 ?x811 ?x2068 ?x823) 0.0))))
 (let (($x177012 (not (<= 0.0 (+ A_3 ?x1450 S_2 ?x832)))))
 (let (($x4515 (<= (+ L_1 ?x823 ?x1450 (* 2.0 S_2)) 0.0)))
 (let (($x56546 (or $x1790 (<= (+ ?x832 S_4 ?x2063 (* (- 2.0) S_2) ?x1619 L_1) 0.0))))
 (let (($x257656 (or $x1580 (<= (+ ?x1823 ?x1824 ?x932 L_0 (* 4.0 S_3) ?x2388) 0.0))))
 (let (($x46733 (or $x2362 $x20017 (<= (+ (* (- (/ 2.0 3.0)) L_1) (* (/ 2.0 3.0) A_1) ?x44592 ?x1459) 0.0))))
 (let (($x46750 (<= (+ (* (/ 1.0 2.0) Q_4) ?x4285 ?x1451 ?x1458 S_1 ?x9565 ?x4286 ?x4288) 0.0)))
 (let (($x20653 (<= (+ Q_4 ?x873 ?x2073 L_0 S_1 S_0 L_1 A_3) 0.0)))
 (let (($x181922 (or $x738 $x1477 (<= (+ Q_4 ?x841 A_0 S_3 ?x811 ?x2068 ?x2069 A_2) 0.0))))
 (let (($x43068 (or $x2362 (<= (+ ?x841 S_4 A_1 ?x1459) 0.0) (<= (+ ?x841 S_4 ?x1462 (* (- (/ 1.0 2.0)) S_3) ?x1463 L_1) 0.0))))
 (let (($x5124 (<= (+ Q_4 L_1 S_2 ?x832) 0.0)))
 (let (($x3625 (<= (+ ?x2388 Q_4 ?x873 ?x2069 ?x2067) 0.0)))
 (let (($x176740 (or (<= (+ ?x820 A_1 ?x1459) (- 5.0)) $x2362 (<= (+ A_0 ?x811 ?x1459) (- 10.0)))))
 (let (($x22623 (or $x1790 (<= (+ (* (/ 3.0 4.0) A_0) (* (- (/ 3.0 4.0)) L_0) ?x19465 ?x1495) 0.0))))
 (let (($x176262 (or $x738 (not (<= (+ ?x778 ?x1451 ?x1458 (* (- (/ 1.0 2.0)) S_2) ?x820 A_1) 0.0)) $x1296 $x169912)))
 (let (($x176090 (or $x712 $x1580 (<= (+ Q_4 ?x873 A_1) (- 15.0)) (<= (+ Q_4 ?x873 A_0 ?x811 L_1) (- 20.0)) (<= (+ Q_4 ?x873 A_2) (- 10.0)))))
 (let (($x19387 (or $x2362 (<= (+ ?x1816 ?x2017 ?x1459 L_0 ?x932) 0.0) (<= (+ ?x1462 ?x1463 ?x9593 ?x1459) 0.0))))
 (let (($x13027 (<= (+ (* (/ 4.0 3.0) A_0) (* (- (/ 4.0 3.0)) L_0) ?x13014 (* (- 2.0) S_2)) 0.0)))
 (let (($x41 (>= A_1 A_0)))
 (let (($x42 (>= A_2 A_1)))
 (let (($x43 (>= A_3 A_2)))
 (let (($x44 (>= A_4 A_3)))
 (and (<= ?x820 ?x811) $x44 $x43 $x42 $x41 (or $x738 $x1477 (<= (+ Q_4 S_1 L_1 ?x823) 0.0)) (or $x3197 $x4515 (<= (+ Q_4 A_3 ?x1450 S_2 ?x832) 0.0)) (or $x1790 (<= (+ A_0 ?x811 ?x1495) (- 5.0))) (or $x1790 $x13027) (or (<= (+ Q_4 A_0 ?x811 L_1 ?x823) (- 5.0)) $x738 $x1477) (or $x738 $x1477 (<= (+ ?x1828 ?x832 S_4 ?x2063 ?x1619 ?x2388 ?x2069) 0.0)) (or $x2362 (<= (+ ?x932 L_0 ?x1459 (* 2.0 S_1)) 0.0)) $x19387 $x176090 $x176262 (or $x1296 $x1728 $x2362 $x11168) $x22623 $x176740 (or $x1473 $x1790 $x9833) (or $x1473 $x1728 $x2362 $x11168) (or $x1405 $x3197 $x177012) (or $x1779 $x3625 $x5124) (or $x1790 (<= (+ ?x832 S_3 A_0 ?x1495 ?x811 L_1) 0.0)) (or $x1790 (<= (+ ?x841 S_4 A_0 ?x1495 ?x811 L_1) 0.0)) $x43068 (or $x738 $x17005 $x169912) (or $x1483 $x5124 $x176848) (or $x738 $x1477 (<= (+ ?x1828 A_0 ?x811 S_2 ?x2068 ?x2069) 0.0)) $x181922 (or $x738 (<= (+ Q_4 S_1 L_1 ?x823) 0.0) $x20653) (or $x738 $x1580 $x20653 $x46750) $x46733 (or $x2362 $x19498 $x20994) (or $x1580 (<= (+ Q_4 ?x873 ?x832 (* 2.0 S_3) ?x2068) 0.0)) (or $x738 $x1477 $x12890) $x257656 $x56546 (or $x1296 $x1748 $x2967 $x169912) (or $x3197 $x4515 $x177012) $x184039 $x530264 (or $x738 $x1477 $x47774) $x516635 $x243238 (or $x738 $x1477 (<= (+ ?x2059 ?x3014 ?x2497 S_4 ?x2019 ?x2035) 0.0)) $x221467 (or $x712 $x738 $x1580 $x170835 $x173765) $x252660 (or $x1483 $x1580 $x176848) (or $x3197 (<= (+ A_1 ?x832) (- 5.0)) $x7873 $x173794) (or $x738 $x1580 $x172343 $x173765) (or $x712 $x1580 $x7923 $x173765 $x174259) (or $x738 $x1296 $x169912 $x177508) (or $x2353 $x9833) (or $x1580 $x1779 $x4515) (or $x2362 $x11168 $x12548) (or $x1405 $x1580 $x176848) (or $x1580 (<= (+ ?x2388 ?x1828 ?x1829 ?x823 (* 3.0 S_3)) 0.0)) (or $x1405 $x3197 $x19172) (or $x1405 $x3197 (<= (+ Q_4 A_3 ?x1450 S_2 ?x832) 0.0)) (or $x2989 $x3197 $x4515) $x212273 (or $x712 $x1580 $x7923 $x9607 $x173794) (or $x1580 $x1779 $x3625) (or $x3197 $x7923 (<= (+ ?x820 A_1 L_0 ?x832) (- 5.0)) $x178265) $x212043 (or $x738 $x1580 $x7712 $x12890) $x519154 (or $x1580 $x4509 $x11022 $x12533) (or $x1580 $x2076 $x2967 $x11022 $x20337) $x213197 $x217711 $x213013 $x254546 (or $x1580 $x2967 $x7712 $x17016) (or $x1473 $x1790 $x5466 $x19363 $x20345) (or $x2353 $x27928 $x46753) $x518358 $x123050 $x536010 (or $x1580 $x2967 (not $x32329) $x34402) (or $x1580 $x1779 $x2967 $x32329) $x537725 $x239092 $x250847 (or $x738 $x1580 $x1779 $x4099) $x244460 (or $x2066 $x2353 (<= (+ A_2 A_0 ?x1495 ?x811 ?x823) 0.0) $x46753) (or $x2066 $x2353 $x5466 $x46753) $x252600 $x527912 (or $x1790 $x9833 (<= (+ ?x3893 ?x3180 ?x1462 ?x20190 ?x1463 ?x1495 ?x4282) 0.0)) (or $x1580 $x2045 $x2967 $x9682 $x20139 $x175583) $x521411 (or $x3197 $x7873 $x9607 $x173794 $x179841 $x182059) $x539463 (or $x1473 $x3037 $x3197 (not $x19802) $x22706) (or $x1473 $x2005 $x5497 $x7782 $x20385 $x31993 $x177356 $x179798) (or $x1473 $x3197 $x5497 $x7873 $x9607 $x19802 $x20385) (or $x3197 $x9607 $x21942 $x173338 $x173794 $x182059) (or $x1473 $x3197 $x3440 $x3658 $x5510 $x7875 $x20385 $x22706 $x29225) (or $x1473 $x3197 $x3440 $x3658 $x7875 $x29225 $x38323) $x265042 $x525696 (or $x1473 $x1790 $x20345 $x27928) (or $x3197 $x7873 $x173338 $x173765 $x174259) (or $x738 $x169912 $x176255) (or $x1790 $x9833 (<= (+ ?x10461 ?x56815 ?x44592 ?x13088 ?x10392 ?x1495 ?x56853) 0.0)) (or $x1473 $x3197 $x3440 $x3658 $x7875 $x29225 $x46805) $x521668 $x523942 $x218875 (or $x1473 $x3197 $x5497 $x20385 $x22706 $x173899 $x177356) $x531551 $x533284 $x529971 $x529322 (or $x3197 $x7923 $x173338 $x174259 $x178265) (or $x738 $x169912 (not $x186135)) $x525336 $x207421 (or $x738 $x1790 $x17005 $x43882) $x532238 (or $x738 $x169912 (not $x192393)) $x532465 $x520788 $x531432 $x208284 $x526380 (or $x1296 $x3197 $x21942 $x173338 $x173794) (or $x1405 $x2989 $x3197) $x528871 (or $x3197 $x21942 $x165869 $x173765 $x174259) (or $x1296 $x2967 $x44306 $x169912) (or $x3197 $x20659 $x176255 $x179841) $x208885 (or $x1296 $x1748 $x3197 $x7873 $x9607 $x179841) (or $x1296 $x1748 $x4254 $x7875 $x188480) (or $x738 $x169912 (not (<= 0.0 ?x24384))) (or $x1296 $x3197 $x21942 $x177508 $x179841) $x238186 (or $x1296 (<= (+ ?x778 A_4 ?x841 A_1 ?x832) 0.0) $x3197 $x46805 $x173899) (or $x1296 $x4509 $x19508 $x179798 $x188480) $x250423 (or $x1296 $x1748 $x2362 $x4254 $x20994) $x1509 (<= (+ ?x1459 S_2) 0.0) (<= (+ ?x1471 S_0) 0.0) (<= (+ ?x1450 S_3) 0.0) (<= (+ S_2 L_1 ?x832) 0.0) (<= (+ ?x841 L_1 S_3) 0.0) (<= (+ L_1 ?x823 S_1) 0.0) (<= (+ ?x932 L_0 S_0) 0.0) (<= (+ L_1 Q_4 ?x873 S_4) 0.0) (<= (+ (* (- 2.0) S_2) (* 2.0 S_1)) 0.0))))))))))))))))))))))))))))))))))))))))))))))))))))))))))))))))))))))))))))))))))))))))))))))))))))))))))))))))))))))))))))))))))))))))))))))))))))))))))))))))))))))))))))))))))))))))))))))))))))))))))))))))))))))))))))))))))))))))))))))))))))))))))))))))))))))))))))))))))))))))))))
(check-sat)
